p cnf 12 50 
-8 6 5 0
-11 -6 -4 0
8 -4 10 0
1 -10 9 0
-10 -7 5 0
-4 -5 10 0
-12 4 10 0
-3 4 1 0
-11 -2 -8 0
5 -6 10 0
9 -6 8 0
2 11 1 0
7 -11 8 0
-2 4 -8 0
6 1 8 0
7 -1 12 0
-12 6 -1 0
7 -5 8 0
2 1 5 0
9 5 3 0
6 -9 -11 0
9 -6 -12 0
-11 10 -2 0
-3 9 11 0
2 7 -12 0
2 8 -6 0
-10 -8 -11 0
3 -10 4 0
10 7 9 0
-3 -7 11 0
7 -2 -9 0
10 6 -7 0
-8 9 1 0
9 -6 10 0
8 -7 -11 0
4 -1 -6 0
-3 11 9 0
-5 -3 -6 0
-2 9 8 0
-4 -8 6 0
-4 -10 2 0
-10 -5 -7 0
3 7 5 0
6 -5 -4 0
-9 10 -7 0
5 3 -4 0
-7 5 -4 0
-5 -7 3 0
10 -8 11 0
10 -3 4 0
